 vasp.5.4.4.18Apr17-6-g9f103f2a35 (build Apr 19 2022 13:31:49) complex

 executed on             LinuxIFC date 2023.12.25  02:58:13

 INCAR:
 POTCAR:   PAW_PBE Si 05Jan2001
 POTCAR:   PAW_PBE Si 05Jan2001
   VRHFIN =Si: s2p2

   TITEL  = PAW_PBE Si 05Jan2001
   POMASS =   28.085; ZVAL   =    4.000    mass and valenz
   ENMAX  =  245.345; ENMIN  =  184.009 eV
   QCUT   =   -4.246; QGAM   =    8.493    optimization parameters

   Description
     l     E      TYP  RCUT    TYP  RCUT
     0   .000     23  1.900
     0   .000     23  1.900
     1   .000     23  1.900
     1   .000     23  1.900
     2   .000      7  1.900

 PAW_PBE Si 05Jan2001                   :

 POSCAR: system Si
  positions in direct lattice
  velocities in cartesian coordinates
 exchange correlation table for  LEXCH =        8
   RHO(1)=    0.500       N(1)  =     2000
   RHO(2)=  100.500       N(2)  =     4000

 ion  position               nearest neighbor table
   1  0.000  0.000  0.000-   2 2.35   2 2.35   2 2.35   2 2.35
   2  0.250  0.250  0.250-   1 2.35   1 2.35   1 2.35   1 2.35

  LATTYP: Found a face centered cubic cell.
 ALAT       =     5.4300000000

  Lattice vectors:

 A1 = (   2.7150000000,   2.7150000000,   0.0000000000)
 A2 = (   0.0000000000,   2.7150000000,   2.7150000000)
 A3 = (   2.7150000000,   0.0000000000,   2.7150000000)

Analysis of symmetry for initial positions (statically):
 Subroutine PRICEL returns:
 Original cell was already a primitive cell.

 Routine SETGRP: Setting up the symmetry group for a
 face centered cubic supercell.

 Subroutine GETGRP returns: Found 48 space group operations
 (whereof 24 operations were pure point group operations)
 out of a pool of 48 trial point group operations.

The static configuration has the point symmetry T_d .
 The point group associated with its full space group is O_h .

Analysis of symmetry for dynamics (positions and initial velocities):
 Subroutine PRICEL returns:
 Original cell was already a primitive cell.

 Routine SETGRP: Setting up the symmetry group for a
 face centered cubic supercell.

 Subroutine GETGRP returns: Found 48 space group operations
 (whereof 24 operations were pure point group operations)
 out of a pool of 48 trial point group operations.

The dynamic configuration has the point symmetry T_d .
 The point group associated with its full space group is O_h .

 Subroutine INISYM returns: Found 48 space group operations
 (whereof 24 operations are pure point group operations),
 and found     1 'primitive' translations

 KPOINTS: k-points for bandstructure L-G-X-U K-G
  interpolating k-points between supplied coordinates
  k-points in reciprocal lattice
Space group operators:
 irot       det(A)        alpha          n_x          n_y          n_z        tau_x        tau_y        tau_z
    1     1.000000     0.000001     1.000000     0.000000     0.000000     0.000000     0.000000     0.000000
    2     1.000000   120.000000    -0.577350    -0.577350    -0.577350     0.000000     0.000000     0.000000
    3     1.000000   120.000000     0.577350     0.577350     0.577350     0.000000     0.000000     0.000000
    4    -1.000000    90.000000     0.000000    -1.000000     0.000000     0.000000     0.000000     0.000000
    5    -1.000000   180.000000     0.707107     0.707107     0.000000     0.000000     0.000000     0.000000
    6    -1.000000    90.000000     1.000000     0.000000     0.000000     0.000000     0.000000     0.000000
    7     1.000000   180.000000     0.000000     1.000000     0.000000     0.000000     0.000000     0.000000
    8     1.000000   120.000000     0.577350     0.577350    -0.577350     0.000000     0.000000     0.000000
    9     1.000000   120.000000     0.577350    -0.577350    -0.577350     0.000000     0.000000     0.000000
   10    -1.000000    90.000000     0.000000     1.000000     0.000000     0.000000     0.000000     0.000000
   11    -1.000000    90.000000     0.000000     0.000000    -1.000000     0.000000     0.000000     0.000000
   12    -1.000000   180.000000     0.000000     0.707107     0.707107     0.000000     0.000000     0.000000
   13     1.000000   120.000000    -0.577350     0.577350     0.577350     0.000000     0.000000     0.000000
   14     1.000000   120.000000    -0.577350     0.577350    -0.577350     0.000000     0.000000     0.000000
   15     1.000000   180.000000     0.000000     0.000000     1.000000     0.000000     0.000000     0.000000
   16    -1.000000    90.000000    -1.000000     0.000000     0.000000     0.000000     0.000000     0.000000
   17    -1.000000   180.000000     0.707107     0.000000     0.707107     0.000000     0.000000     0.000000
   18    -1.000000    90.000000     0.000000     0.000000     1.000000     0.000000     0.000000     0.000000
   19     1.000000   120.000000    -0.577350    -0.577350     0.577350     0.000000     0.000000     0.000000
   20     1.000000   180.000000     1.000000     0.000000     0.000000     0.000000     0.000000     0.000000
   21     1.000000   120.000000     0.577350    -0.577350     0.577350     0.000000     0.000000     0.000000
   22    -1.000000   180.000000     0.707107    -0.707107     0.000000     0.000000     0.000000     0.000000
   23    -1.000000   180.000000     0.707107     0.000000    -0.707107     0.000000     0.000000     0.000000
   24    -1.000000   180.000000     0.000000    -0.707107     0.707107     0.000000     0.000000     0.000000
   25    -1.000000     0.000001     1.000000     0.000000     0.000000     0.250000     0.250000     0.250000
   26    -1.000000   120.000000    -0.577350    -0.577350    -0.577350     0.250000     0.250000     0.250000
   27    -1.000000   120.000000     0.577350     0.577350     0.577350     0.250000     0.250000     0.250000
   28     1.000000    90.000000     0.000000    -1.000000     0.000000     0.250000     0.250000     0.250000
   29     1.000000   180.000000     0.707107     0.707107     0.000000     0.250000     0.250000     0.250000
   30     1.000000    90.000000     1.000000     0.000000     0.000000     0.250000     0.250000     0.250000
   31    -1.000000   180.000000     0.000000     1.000000     0.000000     0.250000     0.250000     0.250000
   32    -1.000000   120.000000     0.577350     0.577350    -0.577350     0.250000     0.250000     0.250000
   33    -1.000000   120.000000     0.577350    -0.577350    -0.577350     0.250000     0.250000     0.250000
   34     1.000000    90.000000     0.000000     1.000000     0.000000     0.250000     0.250000     0.250000
   35     1.000000    90.000000     0.000000     0.000000    -1.000000     0.250000     0.250000     0.250000
   36     1.000000   180.000000     0.000000     0.707107     0.707107     0.250000     0.250000     0.250000
   37    -1.000000   120.000000    -0.577350     0.577350     0.577350     0.250000     0.250000     0.250000
   38    -1.000000   120.000000    -0.577350     0.577350    -0.577350     0.250000     0.250000     0.250000
   39    -1.000000   180.000000     0.000000     0.000000     1.000000     0.250000     0.250000     0.250000
   40     1.000000    90.000000    -1.000000     0.000000     0.000000     0.250000     0.250000     0.250000
   41     1.000000   180.000000     0.707107     0.000000     0.707107     0.250000     0.250000     0.250000
   42     1.000000    90.000000     0.000000     0.000000     1.000000     0.250000     0.250000     0.250000
   43    -1.000000   120.000000    -0.577350    -0.577350     0.577350     0.250000     0.250000     0.250000
   44    -1.000000   180.000000     1.000000     0.000000     0.000000     0.250000     0.250000     0.250000
   45    -1.000000   120.000000     0.577350    -0.577350     0.577350     0.250000     0.250000     0.250000
   46     1.000000   180.000000     0.707107    -0.707107     0.000000     0.250000     0.250000     0.250000
   47     1.000000   180.000000     0.707107     0.000000    -0.707107     0.250000     0.250000     0.250000
   48     1.000000   180.000000     0.000000    -0.707107     0.707107     0.250000     0.250000     0.250000

 SYSTEM =  fcc Si
 POSCAR =  system Si

 Startparameter for this run:
   NWRITE =      2    write-flag & timer
   PREC   = normal    normal or accurate (medium, high low for compatibility)
   ISTART =      1    job   : 0-new  1-cont  2-samecut
   ICHARG =     11    charge: 1-file 2-atom 10-const
   ISPIN  =      1    spin polarized calculation?
   LNONCOLLINEAR =      F non collinear calculations
   LSORBIT =      F    spin-orbit coupling
   INIWAV =      1    electr: 0-lowe 1-rand  2-diag
   LASPH  =      F    aspherical Exc in radial PAW
   METAGGA=      F    non-selfconsistent MetaGGA calc.

 Electronic Relaxation 1
   ENCUT  =  245.3 eV  18.03 Ry    4.25 a.u.   4.90  4.90  4.90*2*pi/ulx,y,z
   ENINI  =  245.3     initial cutoff
   ENAUG  =  322.1 eV  augmentation charge cutoff
   NELM   =     60;   NELMIN=  2; NELMDL=  0     # of ELM steps
   EDIFF  = 0.1E-03   stopping-criterion for ELM
   LREAL  =      F    real-space projection
   NLSPLINE    = F    spline interpolate recip. space projectors
   LCOMPAT=      F    compatible to vasp.4.4
   GGA_COMPAT  = T    GGA compatible to vasp.4.4-vasp.4.6
   LMAXPAW     = -100 max onsite density
   LMAXMIX     =    2 max onsite mixed and CHGCAR
   VOSKOWN=      0    Vosko Wilk Nusair interpolation
   ROPT   =    0.00000
 Ionic relaxation
   EDIFFG = 0.1E-02   stopping-criterion for IOM
   NSW    =      0    number of steps for IOM
   NBLOCK =      1;   KBLOCK =      1    inner block; outer block
   IBRION =     -1    ionic relax: 0-MD 1-quasi-New 2-CG
   NFREE  =      0    steps in history (QN), initial steepest desc. (CG)
   ISIF   =      2    stress and relaxation
   IWAVPR =     10    prediction:  0-non 1-charg 2-wave 3-comb
   ISYM   =      2    0-nonsym 1-usesym 2-fastsym
   LCORR  =      T    Harris-Foulkes like correction to forces

   POTIM  = 0.5000    time-step for ionic-motion
   TEIN   =    0.0    initial temperature
   TEBEG  =    0.0;   TEEND  =   0.0 temperature during run
   SMASS  =  -3.00    Nose mass-parameter (am)
   estimated Nose-frequenzy (Omega)   =  0.10E-29 period in steps =****** mass=  -0.337E-27a.u.
   SCALEE = 1.0000    scale energy and forces
   NPACO  =    256;   APACO  = 16.0  distance and # of slots for P.C.
   PSTRESS=    0.0 pullay stress

  Mass of Ions in am
   POMASS =  28.09
  Ionic Valenz
   ZVAL   =   4.00
  Atomic Wigner-Seitz radii
  virtual crystal weights
   VCA    =   1.00
   NELECT =       8.0000    total number of electrons
   NUPDOWN=      -1.0000    fix difference up-down

 DOS related values:
   EMIN   =  10.00;   EMAX   =-10.00  energy-range for DOS
   EFERMI =   0.00
   ISMEAR =     0;   SIGMA  =   0.10  broadening in eV -4-tet -1-fermi 0-gaus

 Electronic relaxation 2 (details)
   IALGO  =     38    algorithm
   LDIAG  =      T    sub-space diagonalisation (order eigenvalues)
   LSUBROT=      F    optimize rotation matrix (better conditioning)
   TURBO    =      0    0=normal 1=particle mesh
   IRESTART =      0    0=no restart 2=restart with 2 vectors
   NREBOOT  =      0    no. of reboots
   NMIN     =      0    reboot dimension
[...]
   LDIPOL =      F    correct potential (dipole corrections)
   IDIPOL =      0    1-x, 2-y, 3-z, 4-all directions
   EPSILON=  1.0000000 bulk dielectric constant

 Exchange correlation treatment:
   GGA     =    --    GGA type
   VOSKOWN=      0    Vosko Wilk Nusair interpolation
   LHFCALC =     F    Hartree Fock is set to
   LHFONE  =     F    Hartree Fock one center treatment
   AEXX    =    0.0000 exact exchange contribution

 Linear response parameters
   LEPSILON=     F    determine dielectric tensor
   LRPA    =     F    only Hartree local field effects (RPA)
   LNABLA  =     F    use nabla operator in PAW spheres
   LVEL    =     F    velocity operator in full k-point grid
   LINTERFAST=   F  fast interpolation
   KINTER  =     0    interpolate to denser k-point grid
   CSHIFT  =0.1000    complex shift for real part using Kramers Kronig
   OMEGAMAX=  -1.0    maximum frequency
   DEG_THRESHOLD= 0.2000000E-02 threshold for treating states as degnerate
   RTIME   =   -0.100 relaxation time in fs
  (WPLASMAI=    0.000 imaginary part of plasma frequency in eV, 0.658/RTIME)
   DFIELD  = 0.0000000 0.0000000 0.0000000 field for delta impulse in time

 Orbital magnetization related:
   ORBITALMAG=     F  switch on orbital magnetization
   LCHIMAG   =     F  perturbation theory with respect to B field
   DQ        =  0.001000  dq finite difference perturbation B field
   LLRAUG    =     F  two centre corrections for induced B field

 Static calculation
 charge density and potential remain constant during run
 non-spin polarized calculation
 Variant of blocked Davidson
 Davidson routine will perform the subspace rotation
 perform sub-space diagonalisation
    after iterative eigenvector-optimisation
 no mixing
 using additional bands            4
 reciprocal scheme for non local part
 use partial core corrections
 calculate Harris-corrections to forces
   (improved forces if not selfconsistent)
 use gradient corrections
 WARNING: stress and forces are not correct
  (second derivative of E(xc) not defined)
 use of overlap-Matrix (Vanderbilt PP)
 Gauss-broadening in eV      SIGMA  =   0.10

  energy-cutoff  :      245.34
  volume of cell :       40.03
      direct lattice vectors                 reciprocal lattice vectors
     2.715000000  2.715000000  0.000000000     0.184162063  0.184162063 -0.184162063
     0.000000000  2.715000000  2.715000000    -0.184162063  0.184162063  0.184162063
     2.715000000  0.000000000  2.715000000     0.184162063 -0.184162063  0.184162063

  length of vectors
     3.839589822  3.839589822  3.839589822     0.318978049  0.318978049  0.318978049

 old parameters found on file WAVECAR:
  energy-cutoff  :      245.34
  volume of cell :       40.03
      direct lattice vectors                 reciprocal lattice vectors
     2.715000000  2.715000000  0.000000000     0.184162063  0.184162063 -0.184162063
     0.000000000  2.715000000  2.715000000    -0.184162063  0.184162063  0.184162063
     2.715000000  0.000000000  2.715000000     0.184162063 -0.184162063  0.184162063

  length of vectors

 k-points in units of 2pi/SCALE and weight: k-points for bandstructure L-G-X-U K-G
   0.50000000  0.50000000  0.50000000       0.025
   0.44444444  0.44444444  0.44444444       0.025
   0.38888889  0.38888889  0.38888889       0.025
   0.33333333  0.33333333  0.33333333       0.025
   0.27777778  0.27777778  0.27777778       0.025
   0.22222222  0.22222222  0.22222222       0.025
   0.16666667  0.16666667  0.16666667       0.025
   0.11111111  0.11111111  0.11111111       0.025
   0.05555556  0.05555556  0.05555556       0.025
   0.00000000  0.00000000  0.00000000       0.025
   0.00000000  0.00000000  0.00000000       0.025
   0.00000000  0.00000000  0.11111111       0.025
   0.00000000  0.00000000  0.22222222       0.025
   0.00000000  0.00000000  0.33333333       0.025
   0.00000000  0.00000000  0.44444444       0.025
   0.00000000  0.00000000  0.55555556       0.025
   0.00000000  0.00000000  0.66666667       0.025
   0.00000000  0.00000000  0.77777778       0.025
   0.00000000  0.00000000  0.88888889       0.025
   0.00000000  0.00000000  1.00000000       0.025
   0.00000000  0.00000000  1.00000000       0.025
   0.02777778  0.02777778  1.00000000       0.025
   0.05555556  0.05555556  1.00000000       0.025
   0.08333333  0.08333333  1.00000000       0.025
   0.11111111  0.11111111  1.00000000       0.025
   0.13888889  0.13888889  1.00000000       0.025
   0.16666667  0.16666667  1.00000000       0.025
   0.19444444  0.19444444  1.00000000       0.025
   0.22222222  0.22222222  1.00000000       0.025
   0.25000000  0.25000000  1.00000000       0.025
   0.00000000  0.75000000  0.75000000       0.025
   0.00000000  0.66666667  0.66666667       0.025
   0.00000000  0.58333333  0.58333333       0.025
   0.00000000  0.50000000  0.50000000       0.025
   0.00000000  0.41666667  0.41666667       0.025
   0.00000000  0.33333333  0.33333333       0.025
   0.00000000  0.25000000  0.25000000       0.025
   0.00000000  0.16666667  0.16666667       0.025
   0.00000000  0.08333333  0.08333333       0.025
   0.00000000  0.00000000  0.00000000       0.025

 k-points in reciprocal lattice and weights: k-points for bandstructure L-G-X-U K-G
   0.50000000  0.50000000  0.50000000       0.025
   0.44444444  0.44444444  0.44444444       0.025
   0.38888889  0.38888889  0.38888889       0.025
   0.33333333  0.33333333  0.33333333       0.025
   0.27777778  0.27777778  0.27777778       0.025
   0.22222222  0.22222222  0.22222222       0.025
   0.16666667  0.16666667  0.16666667       0.025
   0.11111111  0.11111111  0.11111111       0.025
   0.05555556  0.05555556  0.05555556       0.025
   0.00000000  0.00000000  0.00000000       0.025
   0.00000000  0.00000000  0.00000000       0.025
   0.00000000  0.05555556  0.05555556       0.025
   0.00000000  0.11111111  0.11111111       0.025
   0.00000000  0.16666667  0.16666667       0.025
   0.00000000  0.22222222  0.22222222       0.025
   0.00000000  0.27777778  0.27777778       0.025
   0.00000000  0.33333333  0.33333333       0.025
   0.00000000  0.38888889  0.38888889       0.025
   0.00000000  0.44444444  0.44444444       0.025
   0.00000000  0.50000000  0.50000000       0.025
   0.00000000  0.50000000  0.50000000       0.025
   0.02777778  0.51388889  0.51388889       0.025
   0.05555556  0.52777778  0.52777778       0.025
   0.08333333  0.54166667  0.54166667       0.025
   0.11111111  0.55555556  0.55555556       0.025
   0.13888889  0.56944444  0.56944444       0.025
   0.16666667  0.58333333  0.58333333       0.025
   0.19444444  0.59722222  0.59722222       0.025
   0.22222222  0.61111111  0.61111111       0.025
   0.25000000  0.62500000  0.62500000       0.025
   0.37500000  0.75000000  0.37500000       0.025
   0.33333333  0.66666667  0.33333333       0.025
   0.29166667  0.58333333  0.29166667       0.025
   0.25000000  0.50000000  0.25000000       0.025
   0.20833333  0.41666667  0.20833333       0.025
   0.16666667  0.33333333  0.16666667       0.025
   0.12500000  0.25000000  0.12500000       0.025
   0.08333333  0.16666667  0.08333333       0.025
   0.04166667  0.08333333  0.04166667       0.025
   0.00000000  0.00000000  0.00000000       0.025

 position of ions in fractional coordinates (direct lattice)
   0.00000000  0.00000000  0.00000000
   0.25000000  0.25000000  0.25000000

 position of ions in cartesian coordinates  (Angst):
   0.00000000  0.00000000  0.00000000
   1.35750000  1.35750000  1.35750000

 k-point  1 :   0.5000 0.5000 0.5000  plane waves:     344
 k-point  2 :   0.4444 0.4444 0.4444  plane waves:     356
 k-point  3 :   0.3889 0.3889 0.3889  plane waves:     353
 k-point  4 :   0.3333 0.3333 0.3333  plane waves:     347
 k-point  5 :   0.2778 0.2778 0.2778  plane waves:     350
 k-point  6 :   0.2222 0.2222 0.2222  plane waves:     353
 k-point  7 :   0.1667 0.1667 0.1667  plane waves:     344
 k-point  8 :   0.1111 0.1111 0.1111  plane waves:     335
 k-point  9 :   0.0556 0.0556 0.0556  plane waves:     335
 k-point 10 :   0.0000 0.0000 0.0000  plane waves:     339
 k-point 11 :   0.0000 0.0000 0.0000  plane waves:     339
 k-point 12 :   0.0000 0.0556 0.0556  plane waves:     335
 k-point 13 :   0.0000 0.1111 0.1111  plane waves:     339
 k-point 14 :   0.0000 0.1667 0.1667  plane waves:     343
 k-point 15 :   0.0000 0.2222 0.2222  plane waves:     347
 k-point 16 :   0.0000 0.2778 0.2778  plane waves:     347
 k-point 17 :   0.0000 0.3333 0.3333  plane waves:     343
 k-point 18 :   0.0000 0.3889 0.3889  plane waves:     343
 k-point 19 :   0.0000 0.4444 0.4444  plane waves:     343
 k-point 20 :   0.0000 0.5000 0.5000  plane waves:     342
 k-point 21 :   0.0000 0.5000 0.5000  plane waves:     342
 k-point 22 :   0.0278 0.5139 0.5139  plane waves:     342
 k-point 23 :   0.0556 0.5278 0.5278  plane waves:     342
 k-point 24 :   0.0833 0.5417 0.5417  plane waves:     346
 k-point 25 :   0.1111 0.5556 0.5556  plane waves:     347
 k-point 26 :   0.1389 0.5694 0.5694  plane waves:     357
 k-point 27 :   0.1667 0.5833 0.5833  plane waves:     359
 k-point 28 :   0.1944 0.5972 0.5972  plane waves:     359
 k-point 29 :   0.2222 0.6111 0.6111  plane waves:     359
 k-point 30 :   0.2500 0.6250 0.6250  plane waves:     347
 k-point 31 :   0.3750 0.7500 0.3750  plane waves:     347
 k-point 32 :   0.3333 0.6667 0.3333  plane waves:     353
 k-point 33 :   0.2917 0.5833 0.2917  plane waves:     357
 k-point 34 :   0.2500 0.5000 0.2500  plane waves:     343
 k-point 35 :   0.2083 0.4167 0.2083  plane waves:     351
 k-point 36 :   0.1667 0.3333 0.1667  plane waves:     341
 k-point 37 :   0.1250 0.2500 0.1250  plane waves:     337
 k-point 38 :   0.0833 0.1667 0.0833  plane waves:     339
 k-point 39 :   0.0417 0.0833 0.0417  plane waves:     337
 k-point 40 :   0.0000 0.0000 0.0000  plane waves:     339

 maximum and minimum number of plane-waves per node :       359      335

 maximum number of plane-waves:       359
 maximum index in each direction:
   IXMAX=    4   IYMAX=    4   IZMAX=    4
   IXMIN=   -5   IYMIN=   -5   IZMIN=   -5

 serial   3D FFT for wavefunctions
 parallel 3D FFT for charge:
    minimum data exchange during FFTs selected (reduces bandwidth)

 initial charge density was supplied:
 number of electron       7.9999994 magnetization
 keeping initial charge density in first step

 Maximum index for augmentation-charges          847 (set IRDMAX)

 First call to EWALD:  gamma=   0.518
 Maximum number of real-space cells 3x 3x 3
 Maximum number of reciprocal cells 3x 3x 3

--------------------------------------- Iteration      1(   1)  ---------------------------------------

 eigenvalue-minimisations  :   320
 total energy-change (2. order) :-0.6815720E+01  (-0.3443410E-13)
 number of electron       7.9999994 magnetization
 augmentation part        7.9999994 magnetization

 Free energy of the ion-electron system (eV)
  alpha Z        PSCENC =         3.36414203
  Ewald energy   TEWEN  =      -228.56352493
  -Hartree energ DENC   =       -15.23357982
  -exchange      EXHF   =         0.00000000
  -V(xc)+E(xc)   XCENC  =       -17.91352029
  PAW double counting   =        75.26182406      -40.31544095
  entropy T*S    EENTRO =        -0.00000282
  eigenvalues    EBANDS =        10.46181049
  atomic energy  EATOM  =       206.12257231
  Solvation  Ediel_sol  =         0.00000000
  free energy    TOTEN  =        -6.81571992 eV

  energy without entropy =       -6.81571710  energy(sigma->0) =       -6.81571851

--------------------------------------- Iteration      1(   2)  ---------------------------------------

 eigenvalue-minimisations  :   320
 total energy-change (2. order) : 0.0000000E+00  ( 0.2642102E-13)
 number of electron       7.9999994 magnetization
 augmentation part        7.9999994 magnetization

 Free energy of the ion-electron system (eV)
  alpha Z        PSCENC =         3.36414203
  Ewald energy   TEWEN  =      -228.56352493
  -Hartree energ DENC   =       -15.23357982
  -exchange      EXHF   =         0.00000000
  -V(xc)+E(xc)   XCENC  =       -17.91352029
  PAW double counting   =        75.26182406      -40.31544095
  entropy T*S    EENTRO =        -0.00000282
  eigenvalues    EBANDS =        10.46181049
  atomic energy  EATOM  =       206.12257231
  Solvation  Ediel_sol  =         0.00000000
  free energy    TOTEN  =        -6.81571992 eV

  energy without entropy =       -6.81571710  energy(sigma->0) =       -6.81571851

 average (electrostatic) potential at core
  the test charge radii are     0.9892
  (the norm of the test charge is              1.0000)
       1 -83.1778       2 -83.1778

 E-fermi :   6.1866     XC(G=0):  -9.3849     alpha+bet :-11.9845

 k-point     1 :       0.5000    0.5000    0.5000
  band No.  band energies     occupation
      1      -3.7591      2.00000
      2      -1.1035      2.00000
      3       4.6781      2.00000
      4       4.6781      2.00000
      5       7.4217      0.00000
      6       9.2180      0.00000
      7       9.2180      0.00000
      8      13.5992      0.00000

[...]

 k-point    40 :       0.0000    0.0000    0.0000
  band No.  band energies     occupation
      1      -6.0951      2.00000
      2       5.8852      1.99998
      3       5.8852      1.99998
      4       5.8852      1.99998
      5       8.4349      0.00000
      6       8.4349      0.00000
      7       8.4349      0.00000
      8       9.2556      0.00000

 soft charge-density along one line, spin component           1
         0         1         2         3         4         5         6         7         8         9
 total charge-density along one line

------------------------ aborting loop because EDIFF is reached ----------------------------------------

 total charge

# of ion       s       p       d       tot
    1        0.678   1.059   0.000   1.736
    2        0.678   1.059   0.000   1.736
tot          1.355   2.118   0.000   3.473

  FORCE on cell =-STRESS in cart. coord.  units (eV):
  Direction    XX          YY          ZZ          XY          YZ          ZX
  Alpha Z     3.36414     3.36414     3.36414
  Ewald     -76.18788   -76.18788   -76.18788    -0.00000     0.00000     0.00000
  Hartree     5.81434     5.81434     5.81434     0.00000     0.00000     0.00000
  E(xc)     -25.51450   -25.51450   -25.51450     0.00001     0.00001     0.00001
  Local     -31.11693   -31.11693   -31.11693     0.00005     0.00005     0.00005
  n-local    77.79614    78.87493    73.81078    -1.27128    -1.85125    -0.82853
  augment   -10.95426   -10.95426   -10.95426    -0.00004    -0.00004    -0.00004
  Kinetic    63.31758    64.02121    58.85513    -1.75610    -1.32984    -0.93489
  Fock        0.00000     0.00000     0.00000     0.00000     0.00000     0.00000
  Total       4.29685     4.29685     4.29685     0.00000     0.00000     0.00000
  in kB     171.99712   171.99712   171.99712     0.00000     0.00000     0.00000

 VOLUME and BASIS-vectors are now :
  energy-cutoff  :      245.34
  volume of cell :       40.03
      direct lattice vectors                 reciprocal lattice vectors
     2.715000000  2.715000000  0.000000000     0.184162063  0.184162063 -0.184162063
     0.000000000  2.715000000  2.715000000    -0.184162063  0.184162063  0.184162063
     2.715000000  0.000000000  2.715000000     0.184162063 -0.184162063  0.184162063

  length of vectors
     3.839589822  3.839589822  3.839589822     0.318978049  0.318978049  0.318978049

 FORCES acting on ions
    electron-ion (+dipol)            ewald-force                    non-local-force                 convergence-correction
   0.361E-05 0.369E-05 0.361E-05   -.273E-14 0.111E-14 0.310E-14   -.416E-16 -.694E-17 -.347E-17   0.109E-06 0.113E-06 0.109E-06
   -.361E-05 -.369E-05 -.361E-05   0.315E-14 -.993E-15 -.291E-14   0.000E+00 0.243E-16 0.694E-17   -.109E-06 -.113E-06 -.109E-06
   0.140E-13 0.254E-13 0.289E-13   0.422E-15 0.120E-15 0.187E-15   -.416E-16 0.173E-16 0.347E-17   0.749E-14 -.741E-14 0.761E-14

 POSITION                                       TOTAL-FORCE (eV/Angst)
      0.00000      0.00000      0.00000         0.000000      0.000000      0.000000
      1.35750      1.35750      1.35750        -0.000000     -0.000000     -0.000000
    total drift:                                0.000000      0.000000      0.000000

  FREE ENERGIE OF THE ION-ELECTRON SYSTEM (eV)
  free  energy   TOTEN  =        -6.81571992 eV

  energy  without entropy=       -6.81571710  energy(sigma->0) =       -6.81571851

 writing wavefunctions

 total charge

# of ion       s       p       d       tot
    1        0.678   1.059   0.000   1.736
    2        0.678   1.059   0.000   1.736
tot          1.355   2.118   0.000   3.473