 vasp.5.4.4.18Apr17-6-g9f103f2a35 (build Oct 19 2023 15:45:47) complex

 executed on             LinuxIFC date 2023.12.27  06:54:03

 INCAR:
 POTCAR:   PAW_PBE Si 05Jan2001
 POTCAR:   PAW_PBE Si 05Jan2001
   VRHFIN =Si: s2p2

   TITEL  = PAW_PBE Si 05Jan2001
   POMASS =   28.085; ZVAL   =    4.000    mass and valenz
   ENMAX  =  245.345; ENMIN  =  184.009 eV
   QCUT   =   -4.246; QGAM   =    8.493    optimization parameters

   Description
     l     E      TYP  RCUT    TYP  RCUT
     0   .000     23  1.900
     0   .000     23  1.900
     1   .000     23  1.900
     1   .000     23  1.900
     2   .000      7  1.900

 PAW_PBE Si 05Jan2001                   :

 POSCAR: system Si
  positions in direct lattice
  velocities in cartesian coordinates
 exchange correlation table for  LEXCH =        8
   RHO(1)=    0.500       N(1)  =     2000
   RHO(2)=  100.500       N(2)  =     4000

 ion  position               nearest neighbor table
   1  0.000  0.000  0.000-   2 2.35   2 2.35   2 2.35   2 2.35
   2  0.250  0.250  0.250-   1 2.35   1 2.35   1 2.35   1 2.35

  LATTYP: Found a face centered cubic cell.
 ALAT       =     5.4300000000

  Lattice vectors:

 A1 = (   2.7150000000,   2.7150000000,   0.0000000000)
 A2 = (   0.0000000000,   2.7150000000,   2.7150000000)
 A3 = (   2.7150000000,   0.0000000000,   2.7150000000)

Analysis of symmetry for initial positions (statically):
 Subroutine PRICEL returns:
 Original cell was already a primitive cell.

 Routine SETGRP: Setting up the symmetry group for a
 face centered cubic supercell.

 Subroutine GETGRP returns: Found 48 space group operations
 (whereof 24 operations were pure point group operations)
 out of a pool of 48 trial point group operations.

The static configuration has the point symmetry T_d .
 The point group associated with its full space group is O_h .

Analysis of symmetry for dynamics (positions and initial velocities):
 Subroutine PRICEL returns:
 Original cell was already a primitive cell.

 Routine SETGRP: Setting up the symmetry group for a
 face centered cubic supercell.

 Subroutine GETGRP returns: Found 48 space group operations
 (whereof 24 operations were pure point group operations)
 out of a pool of 48 trial point group operations.

The dynamic configuration has the point symmetry T_d .
 The point group associated with its full space group is O_h .

 Subroutine INISYM returns: Found 48 space group operations
 (whereof 24 operations are pure point group operations),
 and found     1 'primitive' translations

 KPOINTS: Automatic 8x8x8

Automatic generation of k-mesh.
Space group operators:
 irot       det(A)        alpha          n_x          n_y          n_z        tau_x        tau_y        tau_z
    1     1.000000     0.000001     1.000000     0.000000     0.000000     0.000000     0.000000     0.000000
    2     1.000000   120.000000    -0.577350    -0.577350    -0.577350     0.000000     0.000000     0.000000
    3     1.000000   120.000000     0.577350     0.577350     0.577350     0.000000     0.000000     0.000000
    4    -1.000000    90.000000     0.000000    -1.000000     0.000000     0.000000     0.000000     0.000000
    5    -1.000000   180.000000     0.707107     0.707107     0.000000     0.000000     0.000000     0.000000
    6    -1.000000    90.000000     1.000000     0.000000     0.000000     0.000000     0.000000     0.000000
    7     1.000000   180.000000     0.000000     1.000000     0.000000     0.000000     0.000000     0.000000
    8     1.000000   120.000000     0.577350     0.577350    -0.577350     0.000000     0.000000     0.000000
    9     1.000000   120.000000     0.577350    -0.577350    -0.577350     0.000000     0.000000     0.000000
   10    -1.000000    90.000000     0.000000     1.000000     0.000000     0.000000     0.000000     0.000000
   11    -1.000000    90.000000     0.000000     0.000000    -1.000000     0.000000     0.000000     0.000000
   12    -1.000000   180.000000     0.000000     0.707107     0.707107     0.000000     0.000000     0.000000
   13     1.000000   120.000000    -0.577350     0.577350     0.577350     0.000000     0.000000     0.000000
   14     1.000000   120.000000    -0.577350     0.577350    -0.577350     0.000000     0.000000     0.000000
   15     1.000000   180.000000     0.000000     0.000000     1.000000     0.000000     0.000000     0.000000
   16    -1.000000    90.000000    -1.000000     0.000000     0.000000     0.000000     0.000000     0.000000
   17    -1.000000   180.000000     0.707107     0.000000     0.707107     0.000000     0.000000     0.000000
   18    -1.000000    90.000000     0.000000     0.000000     1.000000     0.000000     0.000000     0.000000
   19     1.000000   120.000000    -0.577350    -0.577350     0.577350     0.000000     0.000000     0.000000
   20     1.000000   180.000000     1.000000     0.000000     0.000000     0.000000     0.000000     0.000000
   21     1.000000   120.000000     0.577350    -0.577350     0.577350     0.000000     0.000000     0.000000
   22    -1.000000   180.000000     0.707107    -0.707107     0.000000     0.000000     0.000000     0.000000
   23    -1.000000   180.000000     0.707107     0.000000    -0.707107     0.000000     0.000000     0.000000
   24    -1.000000   180.000000     0.000000    -0.707107     0.707107     0.000000     0.000000     0.000000
   25    -1.000000     0.000001     1.000000     0.000000     0.000000     0.250000     0.250000     0.250000
   26    -1.000000   120.000000    -0.577350    -0.577350    -0.577350     0.250000     0.250000     0.250000
   27    -1.000000   120.000000     0.577350     0.577350     0.577350     0.250000     0.250000     0.250000
   28     1.000000    90.000000     0.000000    -1.000000     0.000000     0.250000     0.250000     0.250000
   29     1.000000   180.000000     0.707107     0.707107     0.000000     0.250000     0.250000     0.250000
   30     1.000000    90.000000     1.000000     0.000000     0.000000     0.250000     0.250000     0.250000
   31    -1.000000   180.000000     0.000000     1.000000     0.000000     0.250000     0.250000     0.250000
   32    -1.000000   120.000000     0.577350     0.577350    -0.577350     0.250000     0.250000     0.250000
   33    -1.000000   120.000000     0.577350    -0.577350    -0.577350     0.250000     0.250000     0.250000
   34     1.000000    90.000000     0.000000     1.000000     0.000000     0.250000     0.250000     0.250000
   35     1.000000    90.000000     0.000000     0.000000    -1.000000     0.250000     0.250000     0.250000
   36     1.000000   180.000000     0.000000     0.707107     0.707107     0.250000     0.250000     0.250000
   37    -1.000000   120.000000    -0.577350     0.577350     0.577350     0.250000     0.250000     0.250000
   38    -1.000000   120.000000    -0.577350     0.577350    -0.577350     0.250000     0.250000     0.250000
   39    -1.000000   180.000000     0.000000     0.000000     1.000000     0.250000     0.250000     0.250000
   40     1.000000    90.000000    -1.000000     0.000000     0.000000     0.250000     0.250000     0.250000
   41     1.000000   180.000000     0.707107     0.000000     0.707107     0.250000     0.250000     0.250000
   42     1.000000    90.000000     0.000000     0.000000     1.000000     0.250000     0.250000     0.250000
   43    -1.000000   120.000000    -0.577350    -0.577350     0.577350     0.250000     0.250000     0.250000
   44    -1.000000   180.000000     1.000000     0.000000     0.000000     0.250000     0.250000     0.250000
   45    -1.000000   120.000000     0.577350    -0.577350     0.577350     0.250000     0.250000     0.250000
   46     1.000000   180.000000     0.707107    -0.707107     0.000000     0.250000     0.250000     0.250000
   47     1.000000   180.000000     0.707107     0.000000    -0.707107     0.250000     0.250000     0.250000
   48     1.000000   180.000000     0.000000    -0.707107     0.707107     0.250000     0.250000     0.250000

 Subroutine IBZKPT returns following result:

 Found     29 irreducible k-points:

 Following reciprocal coordinates:
            Coordinates               Weight
  0.000000  0.000000  0.000000      1.000000
  0.125000  0.000000  0.000000      8.000000
  0.250000  0.000000  0.000000      8.000000
  0.375000  0.000000  0.000000      8.000000
  0.500000  0.000000  0.000000      4.000000
  0.125000  0.125000  0.000000      6.000000
  0.250000  0.125000  0.000000     24.000000
  0.375000  0.125000  0.000000     24.000000
  0.500000  0.125000  0.000000     24.000000
 -0.375000  0.125000  0.000000     24.000000
 -0.250000  0.125000  0.000000     24.000000
 -0.125000  0.125000  0.000000     12.000000
  0.250000  0.250000  0.000000      6.000000
  0.375000  0.250000  0.000000     24.000000
  0.500000  0.250000  0.000000     24.000000
 -0.375000  0.250000  0.000000     24.000000
 -0.250000  0.250000  0.000000     12.000000
  0.375000  0.375000  0.000000      6.000000
  0.500000  0.375000  0.000000     24.000000
 -0.375000  0.375000  0.000000     12.000000
  0.500000  0.500000  0.000000      3.000000
  0.375000  0.250000  0.125000     24.000000
  0.500000  0.250000  0.125000     48.000000
 -0.375000  0.250000  0.125000     24.000000
  0.500000  0.375000  0.125000     24.000000
 -0.375000  0.375000  0.125000     48.000000
 -0.250000  0.375000  0.125000     24.000000
 -0.375000  0.500000  0.125000     12.000000
 -0.250000  0.500000  0.250000      6.000000

 Following cartesian coordinates:
            Coordinates               Weight
  0.000000  0.000000  0.000000      1.000000
  0.125000  0.125000 -0.125000      8.000000
  0.250000  0.250000 -0.250000      8.000000
  0.375000  0.375000 -0.375000      8.000000
  0.500000  0.500000 -0.500000      4.000000
  0.000000  0.250000  0.000000      6.000000
  0.125000  0.375000 -0.125000     24.000000
  0.250000  0.500000 -0.250000     24.000000
  0.375000  0.625000 -0.375000     24.000000
 -0.500000 -0.250000  0.500000     24.000000
 -0.375000 -0.125000  0.375000     24.000000
 -0.250000  0.000000  0.250000     12.000000
  0.000000  0.500000  0.000000      6.000000
  0.125000  0.625000 -0.125000     24.000000
  0.250000  0.750000 -0.250000     24.000000
 -0.625000 -0.125000  0.625000     24.000000
 -0.500000  0.000000  0.500000     12.000000
  0.000000  0.750000  0.000000      6.000000
  0.125000  0.875000 -0.125000     24.000000
 -0.750000  0.000000  0.750000     12.000000
  0.000000  1.000000  0.000000      3.000000
  0.250000  0.500000 -0.000000     24.000000
  0.375000  0.625000 -0.125000     48.000000
 -0.500000 -0.250000  0.750000     24.000000
  0.250000  0.750000  0.000000     24.000000
 -0.625000 -0.125000  0.875000     48.000000
 -0.500000  0.000000  0.750000     24.000000
 -0.750000 -0.000000  1.000000     12.000000
 -0.500000  0.000000  1.000000      6.000000

 Subroutine IBZKPT_HF returns following result:

 Found    512 k-points in 1st BZ
 the following    512 k-points will be used (e.g. in the exchange kernel)
 Following reciprocal coordinates:   # in IRBZ
  0.000000  0.000000  0.000000    0.00195312   1 t-inv F
  0.125000  0.000000  0.000000    0.00195312   2 t-inv F
[...]
   NUPDOWN=      -1.0000    fix difference up-down

 DOS related values:
   EMIN   =  10.00;   EMAX   =-10.00  energy-range for DOS
   EFERMI =   0.00
   ISMEAR =     0;   SIGMA  =   0.20  broadening in eV -4-tet -1-fermi 0-gaus

 Electronic relaxation 2 (details)
   IALGO  =     38    algorithm
   LDIAG  =      T    sub-space diagonalisation (order eigenvalues)
   LSUBROT=      F    optimize rotation matrix (better conditioning)
   TURBO    =      0    0=normal 1=particle mesh
   IRESTART =      0    0=no restart 2=restart with 2 vectors
   NREBOOT  =      0    no. of reboots
   NMIN     =      0    reboot dimension
   EREF     =   0.00    reference energy to select bands
   IMIX   =      4    mixing-type and parameters
     AMIX     =   0.40;   BMIX     =  1.00
     AMIX_MAG =   1.60;   BMIX_MAG =  1.00
     AMIN     =   0.10
     WC   =   100.;   INIMIX=   1;  MIXPRE=   1;  MAXMIX= -45

 Intra band minimization:
   WEIMIN = 0.0000     energy-eigenvalue tresh-hold
   EBREAK =  0.31E-09  absolut break condition
   DEPER  =   0.30     relativ break condition

   TIME   =   0.40     timestep for ELM

  volume/ion in A,a.u.               =      20.01       135.05
  Fermi-wavevector in a.u.,A,eV,Ry     =   0.957176  1.808800 12.465458  0.916185
  Thomas-Fermi vector in A             =   2.086170

 Write flags
   LWAVE        =      T    write WAVECAR
   LDOWNSAMPLE  =      F    k-point downsampling of WAVECAR
   LCHARG       =      F    write CHGCAR
   LVTOT        =      F    write LOCPOT, total local potential
   LVHAR        =      F    write LOCPOT, Hartree potential only
   LELF         =      F    write electronic localiz. function (ELF)
   LORBIT       =      0    0 simple, 1 ext, 2 COOP (PROOUT), +10 PAW based schemes

 Dipole corrections
   LMONO  =      F    monopole corrections only (constant potential shift)
   LDIPOL =      F    correct potential (dipole corrections)
   IDIPOL =      0    1-x, 2-y, 3-z, 4-all directions
   EPSILON=  1.0000000 bulk dielectric constant

 Exchange correlation treatment:
   GGA     =    --    GGA type
   VOSKOWN=      0    Vosko Wilk Nusair interpolation
   LHFCALC =     F    Hartree Fock is set to
   LHFONE  =     F    Hartree Fock one center treatment
   AEXX    =    0.0000 exact exchange contribution

 Linear response parameters
   LEPSILON=     F    determine dielectric tensor
   LRPA    =     F    only Hartree local field effects (RPA)
   LNABLA  =     F    use nabla operator in PAW spheres
   LVEL    =     F    velocity operator in full k-point grid
   LINTERFAST=   F  fast interpolation
   KINTER  =     0    interpolate to denser k-point grid
   CSHIFT  =0.1000    complex shift for real part using Kramers Kronig
   OMEGAMAX=  -1.0    maximum frequency
   DEG_THRESHOLD= 0.2000000E-02 threshold for treating states as degnerate
   RTIME   =   -0.100 relaxation time in fs
  (WPLASMAI=    0.000 imaginary part of plasma frequency in eV, 0.658/RTIME)
   DFIELD  = 0.0000000 0.0000000 0.0000000 field for delta impulse in time

 Orbital magnetization related:
   ORBITALMAG=     F  switch on orbital magnetization
   LCHIMAG   =     F  perturbation theory with respect to B field
   DQ        =  0.001000  dq finite difference perturbation B field
   LLRAUG    =     F  two centre corrections for induced B field

 Static calculation
 charge density and potential will be updated during run
 non-spin polarized calculation
 Variant of blocked Davidson
 Davidson routine will perform the subspace rotation
 perform sub-space diagonalisation
    after iterative eigenvector-optimisation
 modified Broyden-mixing scheme, WC =      100.0
 initial mixing is a Kerker type mixing with AMIX =  0.4000 and BMIX =      1.0000
 Hartree-type preconditioning will be used
 using additional bands            4
 reciprocal scheme for non local part
 use partial core corrections
 calculate Harris-corrections to forces
   (improved forces if not selfconsistent)
 use gradient corrections
 use of overlap-Matrix (Vanderbilt PP)
 Gauss-broadening in eV      SIGMA  =   0.20

  energy-cutoff  :      500.00
  volume of cell :       40.03
      direct lattice vectors                 reciprocal lattice vectors
     2.715000000  2.715000000  0.000000000     0.184162063  0.184162063 -0.184162063
     0.000000000  2.715000000  2.715000000    -0.184162063  0.184162063  0.184162063
     2.715000000  0.000000000  2.715000000     0.184162063 -0.184162063  0.184162063

  length of vectors
     3.839589822  3.839589822  3.839589822     0.318978049  0.318978049  0.318978049

 old parameters found on file WAVECAR:
  energy-cutoff  :      500.00
  volume of cell :       40.03
      direct lattice vectors                 reciprocal lattice vectors
     2.715000000  2.715000000  0.000000000     0.184162063  0.184162063 -0.184162063
     0.000000000  2.715000000  2.715000000    -0.184162063  0.184162063  0.184162063
     2.715000000  0.000000000  2.715000000     0.184162063 -0.184162063  0.184162063

  length of vectors

 k-points in units of 2pi/SCALE and weight: Automatic 8x8x8
   0.00000000  0.00000000  0.00000000       0.002
   0.12500000  0.12500000 -0.12500000       0.016
   0.25000000  0.25000000 -0.25000000       0.016
   0.37500000  0.37500000 -0.37500000       0.016
   0.50000000  0.50000000 -0.50000000       0.008
   0.00000000  0.25000000  0.00000000       0.012
   0.12500000  0.37500000 -0.12500000       0.047
   0.25000000  0.50000000 -0.25000000       0.047
   0.37500000  0.62500000 -0.37500000       0.047
  -0.50000000 -0.25000000  0.50000000       0.047
  -0.37500000 -0.12500000  0.37500000       0.047
  -0.25000000  0.00000000  0.25000000       0.023
   0.00000000  0.50000000  0.00000000       0.012
   0.12500000  0.62500000 -0.12500000       0.047
   0.25000000  0.75000000 -0.25000000       0.047
  -0.62500000 -0.12500000  0.62500000       0.047
  -0.50000000  0.00000000  0.50000000       0.023
   0.00000000  0.75000000  0.00000000       0.012
   0.12500000  0.87500000 -0.12500000       0.047
  -0.75000000  0.00000000  0.75000000       0.023
   0.00000000  1.00000000  0.00000000       0.006
   0.25000000  0.50000000 -0.00000000       0.047
   0.37500000  0.62500000 -0.12500000       0.094
  -0.50000000 -0.25000000  0.75000000       0.047
   0.25000000  0.75000000  0.00000000       0.047
  -0.62500000 -0.12500000  0.87500000       0.094
  -0.50000000  0.00000000  0.75000000       0.047
  -0.75000000 -0.00000000  1.00000000       0.023
  -0.50000000  0.00000000  1.00000000       0.012

 k-points in reciprocal lattice and weights: Automatic 8x8x8
   0.00000000  0.00000000  0.00000000       0.002
   0.12500000  0.00000000  0.00000000       0.016
   0.25000000  0.00000000  0.00000000       0.016
   0.37500000  0.00000000  0.00000000       0.016
   0.50000000  0.00000000  0.00000000       0.008
   0.12500000  0.12500000  0.00000000       0.012
   0.25000000  0.12500000  0.00000000       0.047
   0.37500000  0.12500000  0.00000000       0.047
   0.50000000  0.12500000  0.00000000       0.047
  -0.37500000  0.12500000  0.00000000       0.047
  -0.25000000  0.12500000  0.00000000       0.047
  -0.12500000  0.12500000  0.00000000       0.023
   0.25000000  0.25000000  0.00000000       0.012
   0.37500000  0.25000000  0.00000000       0.047
   0.50000000  0.25000000  0.00000000       0.047
  -0.37500000  0.25000000  0.00000000       0.047
  -0.25000000  0.25000000  0.00000000       0.023
   0.37500000  0.37500000  0.00000000       0.012
   0.50000000  0.37500000  0.00000000       0.047
  -0.37500000  0.37500000  0.00000000       0.023
   0.50000000  0.50000000  0.00000000       0.006
   0.37500000  0.25000000  0.12500000       0.047
   0.50000000  0.25000000  0.12500000       0.094
  -0.37500000  0.25000000  0.12500000       0.047
   0.50000000  0.37500000  0.12500000       0.047
  -0.37500000  0.37500000  0.12500000       0.094
  -0.25000000  0.37500000  0.12500000       0.047
  -0.37500000  0.50000000  0.12500000       0.023
  -0.25000000  0.50000000  0.25000000       0.012

 position of ions in fractional coordinates (direct lattice)
   0.00000000  0.00000000  0.00000000
   0.25000000  0.25000000  0.25000000

 position of ions in cartesian coordinates  (Angst):
   0.00000000  0.00000000  0.00000000
   1.35750000  1.35750000  1.35750000

 k-point  1 :   0.0000 0.0000 0.0000  plane waves:     965
 k-point  2 :   0.1250 0.0000 0.0000  plane waves:     989
 k-point  3 :   0.2500 0.0000 0.0000  plane waves:    1001
 k-point  4 :   0.3750 0.0000 0.0000  plane waves:    1017
 k-point  5 :   0.5000 0.0000 0.0000  plane waves:    1008
 k-point  6 :   0.1250 0.1250 0.0000  plane waves:     994
 k-point  7 :   0.2500 0.1250 0.0000  plane waves:    1002
 k-point  8 :   0.3750 0.1250 0.0000  plane waves:    1004
 k-point  9 :   0.5000 0.1250 0.0000  plane waves:    1015
 k-point 10 :  -0.3750 0.1250 0.0000  plane waves:    1016
 k-point 11 :  -0.2500 0.1250 0.0000  plane waves:    1008
 k-point 12 :  -0.1250 0.1250 0.0000  plane waves:     997
 k-point 13 :   0.2500 0.2500 0.0000  plane waves:     998
 k-point 14 :   0.3750 0.2500 0.0000  plane waves:    1021
 k-point 15 :   0.5000 0.2500 0.0000  plane waves:    1014
 k-point 16 :  -0.3750 0.2500 0.0000  plane waves:    1009
 k-point 17 :  -0.2500 0.2500 0.0000  plane waves:    1019
 k-point 18 :   0.3750 0.3750 0.0000  plane waves:    1026
 k-point 19 :   0.5000 0.3750 0.0000  plane waves:    1011
 k-point 20 :  -0.3750 0.3750 0.0000  plane waves:    1011
 k-point 21 :   0.5000 0.5000 0.0000  plane waves:    1034
 k-point 22 :   0.3750 0.2500 0.1250  plane waves:    1019
 k-point 23 :   0.5000 0.2500 0.1250  plane waves:    1018
 k-point 24 :  -0.3750 0.2500 0.1250  plane waves:    1034
 k-point 25 :   0.5000 0.3750 0.1250  plane waves:    1026
 k-point 26 :  -0.3750 0.3750 0.1250  plane waves:    1019
 k-point 27 :  -0.2500 0.3750 0.1250  plane waves:    1017
 k-point 28 :  -0.3750 0.5000 0.1250  plane waves:    1012
 k-point 29 :  -0.2500 0.5000 0.2500  plane waves:    1036

 maximum and minimum number of plane-waves per node :      1036      965

 maximum number of plane-waves:      1036
 maximum index in each direction:
   IXMAX=    7   IYMAX=    6   IZMAX=    7
   IXMIN=   -7   IYMIN=   -7   IZMIN=   -7

 serial   3D FFT for wavefunctions
 parallel 3D FFT for charge:
    minimum data exchange during FFTs selected (reduces bandwidth)

 Broyden mixing: mesh for mixing (old mesh)
   NGX = 13   NGY = 13   NGZ = 13
  (NGX  = 56   NGY  = 56   NGZ  = 56)
  gives a total of   2197 points

 charge density for first step will be calculated from the start-wavefunctions

 Maximum index for augmentation-charges         4527 (set IRDMAX)

 initial charge from wavefunction
 First call to EWALD:  gamma=   0.518
 Maximum number of real-space cells 3x 3x 3
 Maximum number of reciprocal cells 3x 3x 3

--------------------------------------- Iteration      1(   1)  ---------------------------------------

 eigenvalue-minimisations  :   344
 total energy-change (2. order) :-0.1084075E+02  (-0.3346589E-11)
 number of electron       8.0000001 magnetization
 augmentation part       -0.4586056 magnetization

 Broyden mixing:
  rms(total) = 0.33221E-06    rms(broyden)= 0.33221E-06
  rms(prec ) = 0.12037E-05
  weight for this iteration     100.00

 Free energy of the ion-electron system (eV)
  alpha Z        PSCENC =         3.36414203
  Ewald energy   TEWEN  =      -228.56352493
  -Hartree energ DENC   =       -14.92876797
  -exchange      EXHF   =         0.00000000
  -V(xc)+E(xc)   XCENC  =       -17.96133960
  PAW double counting   =        74.30129639      -39.33904614
  entropy T*S    EENTRO =        -0.00018970
  eigenvalues    EBANDS =         6.15416577
  atomic energy  EATOM  =       206.13251344
  Solvation  Ediel_sol  =         0.00000000
  free energy    TOTEN  =       -10.84075071 eV

  energy without entropy =      -10.84056101  energy(sigma->0) =      -10.84065586

--------------------------------------- Iteration      1(   2)  ---------------------------------------

 eigenvalue-minimisations  :   336
 total energy-change (2. order) : 0.3587957E-09  (-0.2713101E-12)
 number of electron       8.0000001 magnetization
 augmentation part       -0.4586056 magnetization

 Free energy of the ion-electron system (eV)
  alpha Z        PSCENC =         3.36414203
  Ewald energy   TEWEN  =      -228.56352493
  -Hartree energ DENC   =       -14.92876506
  -exchange      EXHF   =         0.00000000
  -V(xc)+E(xc)   XCENC  =       -17.96133984
  PAW double counting   =        74.30129069      -39.33904024
  entropy T*S    EENTRO =        -0.00018970
  eigenvalues    EBANDS =         6.15416290
  atomic energy  EATOM  =       206.13251344
  Solvation  Ediel_sol  =         0.00000000
  free energy    TOTEN  =       -10.84075071 eV

  energy without entropy =      -10.84056101  energy(sigma->0) =      -10.84065586

 average (electrostatic) potential at core
  the test charge radii are     0.9892
  (the norm of the test charge is              1.0000)
       1 -83.2426       2 -83.2426

 E-fermi :   6.1161     XC(G=0):  -9.4097     alpha+bet :-11.9845

 k-point     1 :       0.0000    0.0000    0.0000
  band No.  band energies     occupation
      1      -6.1291      2.00000
      2       5.8312      1.95607
      3       5.8312      1.95607
      4       5.8312      1.95607
      5       8.3965      0.00000
      6       8.3965      0.00000
      7       8.3965      0.00000
      8       9.2096      0.00000

[...]

 k-point    29 :      -0.2500    0.5000    0.2500
  band No.  band energies     occupation
      1      -1.8193      2.00000
      2      -1.8193      2.00000
      3       1.9800      2.00000
      4       1.9800      2.00000
      5      10.0990      0.00000
      6      10.0990      0.00000
      7      10.8380      0.00000
      8      10.8380      0.00000

 soft charge-density along one line, spin component           1
         0         1         2         3         4         5         6         7         8         9
 total charge-density along one line

------------------------ aborting loop because EDIFF is reached ----------------------------------------

  FORCE on cell =-STRESS in cart. coord.  units (eV):
  Direction    XX          YY          ZZ          XY          YZ          ZX
  Alpha Z     3.36414     3.36414     3.36414
  Ewald     -76.18788   -76.18788   -76.18788    -0.00000     0.00000     0.00000
  Hartree     4.97625     4.97625     4.97625     0.00000     0.00000     0.00000
  E(xc)     -25.37128   -25.37128   -25.37128     0.00000     0.00000     0.00000
  Local     -29.21960   -29.21960   -29.21960     0.00001     0.00001     0.00001
  n-local    80.11813    74.40633    78.96667    -1.21821     0.61518     2.26836
  augment   -11.64811   -11.64811   -11.64811    -0.00001    -0.00001    -0.00001
  Kinetic    56.32340    55.14199    58.78947    -0.73833     0.99369     3.52747
  Fock        0.00000     0.00000     0.00000     0.00000     0.00000     0.00000
  Total       0.49552     0.49552     0.49552    -0.00000     0.00000    -0.00000
  in kB      19.83484    19.83484    19.83484    -0.00000     0.00000    -0.00000

 VOLUME and BASIS-vectors are now :
  energy-cutoff  :      500.00
  volume of cell :       40.03
      direct lattice vectors                 reciprocal lattice vectors
     2.715000000  2.715000000  0.000000000     0.184162063  0.184162063 -0.184162063
     0.000000000  2.715000000  2.715000000    -0.184162063  0.184162063  0.184162063
     2.715000000  0.000000000  2.715000000     0.184162063 -0.184162063  0.184162063

  length of vectors
     3.839589822  3.839589822  3.839589822     0.318978049  0.318978049  0.318978049

 FORCES acting on ions
    electron-ion (+dipol)            ewald-force                    non-local-force                 convergence-correction
   0.801E-08 0.458E-08 0.801E-08   -.273E-14 0.111E-14 0.310E-14   0.139E-16 0.208E-16 -.694E-17   0.416E-12 0.419E-12 0.418E-12
   -.801E-08 -.458E-08 -.801E-08   0.315E-14 -.993E-15 -.291E-14   -.139E-16 -.416E-16 0.416E-16   -.421E-12 -.419E-12 -.421E-12
   0.616E-13 -.146E-13 0.117E-12   0.422E-15 0.120E-15 0.187E-15   0.000E+00 -.208E-16 0.347E-16   -.544E-14 -.465E-15 -.289E-14

 POSITION                                       TOTAL-FORCE (eV/Angst)
      0.00000      0.00000      0.00000        -0.000000     -0.000000     -0.000000
      1.35750      1.35750      1.35750         0.000000      0.000000      0.000000
    total drift:                                0.000000     -0.000000      0.000000

  FREE ENERGIE OF THE ION-ELECTRON SYSTEM (eV)
  free  energy   TOTEN  =       -10.84075071 eV

  energy  without entropy=      -10.84056101  energy(sigma->0) =      -10.84065586

 writing wavefunctions